p td 22 72
2 1
3 2
5 4
6 3
6 2
7 1
7 5
7 3
7 2
7 6
8 2
8 1
9 4
9 6
10 6
11 5
11 3
11 8
11 4
11 9
11 1
12 3
12 1
12 6
12 10
12 9
12 5
13 11
13 9
13 7
13 2
14 4
15 9
15 1
15 11
15 7
15 3
15 12
16 4
16 10
16 14
17 11
17 15
17 2
17 12
18 9
18 10
18 14
18 12
19 11
19 14
19 6
19 7
20 8
20 18
20 19
20 16
20 3
20 13
21 19
21 11
21 17
21 1
21 7
21 15
22 16
22 11
22 2
22 19
22 6
22 13
22 12
